GLPSOL: GLPK LP/MIP Solver, v4.55
Parameter(s) specified in the command line:
 -m tmp.mod
Reading model section from tmp.mod...
Reading data section from tmp.mod...
6834 lines were read
Generating obj...
Generating kirhoff...
Generating init_charge...
Generating batt_size...
Model has been successfully generated
GLPK Simplex Optimizer, v4.55
9532 rows, 13433 columns, 29592 non-zeros
Preprocessing...
6978 rows, 13201 columns, 29085 non-zeros
Scaling...
 A: min|aij| =  1.000e+00  max|aij| =  1.000e+00  ratio =  1.000e+00
Problem data seem to be well scaled
Constructing initial basis...
Size of triangular part is 5992
      0: obj =   0.000000000e+00  infeas =  1.033e+04 (986)
    500: obj =   0.000000000e+00  infeas =  8.400e+03 (885)
   1000: obj =   2.000000000e+01  infeas =  5.854e+03 (816)
   1500: obj =   1.210000000e+02  infeas =  3.662e+03 (756)
   2000: obj =   3.185000000e+02  infeas =  2.211e+03 (745)
   2500: obj =   4.040000000e+02  infeas =  1.767e+03 (739)
   3000: obj =   7.020000000e+02  infeas =  3.880e+02 (719)
*  3478: obj =   8.316666667e+02  infeas =  0.000e+00 (703)
*  3500: obj =   7.910000000e+02  infeas =  0.000e+00 (703)
*  4000: obj =   4.080000000e+02  infeas =  0.000e+00 (694)
*  4294: obj =   3.400000000e+02  infeas =  0.000e+00 (692)
OPTIMAL LP SOLUTION FOUND
Time used:   2.4 secs
Memory used: 26.7 Mb (28013821 bytes)
#OUTPUT:
340
-93 0 0 1 -36 -40 0 7 9 0 -73 0 -7 -93 -56 0 -48 -54 3 0 -13 0 -47 0 -12 0 9 -34 -5 0 0 -5 -4 1 0 -90 -1 -9 -2 10 0 10 3 0 10 0 0 0 0 0 0 7 0 0 6 0 -7 -12 3 5 0 1 0 -7 -1 -62 4 0 -7 0 3 0 -5 -54 4 56 0 22 5 0 0 0 -12 0 0 26 0 0 0 -12 0 -27 -27 0 0 0 29 2 6 0 9 9 0 -63 0 -1 -1 0 0 0 8 0 6 0 5 -62 0 0 0 0 1 0 1 0 0 0 0 0 0 42 0 3 -10 0 0 0 0 7 0 0 18 3 26 -7 0 10 0 27 0 0 0 -87 3 -2 3 0 0 0 0 0 0 3 0 0 0 0 0 0 -12 27 0 0 0 0 0 0 0 0 0 3 0 0 9 0 0 0 -1 0 0 0 0 0 0 0 9 0 -3 -5 10 0 0 0 0 0 5 0 0 0 1 18 0 6 1 0 0 0 0 0 0 0 -87 0 -5 0 -12 0 0 9 0 0 0 0 -7 0 -35 0 -5 0 0 0 0 0 0 5 0 0 0 0 0 0 -27 -8 0 0 0 0 0 0 0 0 0 0 -59 -2 0 0 0 0 0 0 -6 0 0 0 3 0 0 0 0 0 0 21 0 0 0 0 0 0 0 3 0 1 0 0 0 -35 0 0 0 0 0 3 0 -4 0 0 0 -1 -5 0 -60 -7 1 0 0 -1 -12 -7 -3 -26 0 0 -9 1 0 0 3 -16 0 0 -5 -18 -6 -1 0 0 5 0 -9 7 0 0 5 0 0 -5 0 0 0 27 8 0 0 0 0 29 30 2 0 0 3 0 0 -6 0 -3 3 -21 0 -3 -1 0 0 0 -4 1 4 0 0 0 0 0 0 0 0 0 0 0 0 0 0 0 0 0 0 0 0 0 0 0 0 0 0 0 0 0 0 0 0 0 0 0 0 0 0 0 0 0 0 0 0 0 0 0 0 0 0 0 0 0 0 0 0 0 0 0 0 0 0 0 0 0 0 0 0 0 0 0 
-62 0 5 -5 -64 -15 -4 0 0 0 0 -1 7 -16 10 -1 0 -6 0 0 -10 0 0 0 0 -5 -9 -27 -5 0 -4 0 0 10 0 -22 -1 -3 0 -8 -5 -8 0 0 0 -1 -6 0 0 0 0 0 0 0 -7 0 5 0 0 -1 0 -1 -8 0 -3 0 -1 0 -7 0 0 0 -8 0 0 5 0 28 5 0 9 0 0 0 2 0 -45 0 0 0 0 -27 0 0 0 0 0 0 0 0 -9 -9 0 0 0 0 0 0 0 0 -14 0 0 0 3 0 -2 0 0 -1 0 -3 0 0 0 -39 0 0 0 0 0 -3 -10 0 0 0 0 0 0 0 9 -3 0 -7 0 19 0 27 0 0 0 0 0 -13 0 0 0 6 0 0 0 0 0 0 0 0 0 0 0 27 0 0 0 0 0 0 0 0 0 0 0 0 -9 0 0 0 -6 0 0 0 0 0 0 0 0 0 0 0 19 0 1 0 0 0 6 -1 0 0 0 9 0 0 0 0 0 0 0 0 0 0 0 0 0 0 0 0 0 3 0 0 0 0 0 0 0 0 0 0 0 0 0 0 0 0 0 0 0 2 0 0 -27 0 0 -5 0 0 -7 14 0 0 0 0 0 7 0 0 0 0 0 4 -3 0 0 0 1 -7 0 0 0 0 0 0 0 -14 0 0 0 0 0 0 0 0 0 0 0 0 0 0 0 -7 0 0 0 0 0 0 0 -10 -5 -2 0 0 1 1 -1 0 0 0 3 0 0 0 9 0 6 0 0 -22 0 -1 -6 -17 0 0 0 0 0 12 -3 0 0 0 5 0 0 0 0 -1 -8 27 -14 0 5 0 0 0 0 0 0 -4 3 0 0 -3 -1 0 7 0 14 0 0 0 0 7 0 0 0 0 0 0 0 0 0 0 0 0 0 0 0 0 0 0 0 0 0 0 0 0 0 0 0 0 0 0 0 0 0 0 0 0 0 0 0 0 0 0 0 0 0 0 0 0 0 0 0 0 0 0 0 0 0 0 0 0 0 0 0 0 0 0 0 0 0 0 0 0 0 0 
-94 16 16 -3 -49 -57 -2 7 5 0 -13 0 0 -16 -56 -6 -46 0 0 -9 2 -5 0 0 -8 0 -9 -27 5 0 0 0 -21 -10 0 -2 0 -9 25 0 -2 0 -2 0 0 0 -19 0 0 0 0 0 0 0 0 0 0 0 0 -6 0 -1 0 -19 0 0 -6 0 0 0 0 0 0 19 36 0 0 11 -5 0 -15 2 -2 0 0 0 0 0 0 -2 0 -27 -20 0 0 -5 -17 0 -1 0 -9 -9 0 0 0 17 -1 0 0 0 0 0 25 0 -4 0 -4 0 0 0 0 -4 -2 7 5 0 0 0 0 17 0 0 -10 0 0 0 0 0 5 0 0 0 0 0 0 0 0 27 0 0 12 0 3 2 3 0 0 -2 0 0 5 0 12 0 0 0 -5 0 0 27 0 0 0 0 0 0 0 0 0 0 0 0 -9 0 0 0 -1 0 0 0 0 0 0 0 -12 0 0 0 0 0 0 0 0 0 0 0 0 0 0 0 0 25 0 -7 0 0 0 0 -24 0 0 0 8 0 0 0 0 9 0 0 0 0 0 0 0 0 0 0 0 0 0 0 0 0 0 0 0 0 0 0 -27 0 -5 -2 0 0 0 0 0 0 0 0 0 0 0 0 0 0 0 0 0 0 0 0 3 0 0 0 0 0 0 21 0 0 0 0 0 0 0 0 0 0 2 0 0 0 0 0 0 0 0 0 0 -36 0 0 0 10 5 0 20 0 1 0 0 2 0 0 0 0 -5 -18 9 3 -2 0 0 0 0 0 0 0 -25 0 7 0 -8 0 -9 0 0 0 2 0 0 0 0 0 0 27 0 5 2 0 0 -17 17 0 0 0 3 12 -18 0 0 -3 0 -21 0 0 0 -2 0 0 0 0 36 0 0 0 0 0 0 0 0 0 0 0 0 0 0 0 0 0 0 0 0 0 0 0 0 0 0 0 0 0 0 0 0 0 0 0 0 0 0 0 0 0 0 0 0 0 0 0 0 0 0 0 0 0 0 0 0 0 0 0 0 0 0 0 0 0 0 0 0 0 0 0 
-94 0 0 -4 -35 -57 -4 7 0 0 -34 0 0 -33 -53 -20 0 -23 0 0 -10 7 0 -30 0 0 9 -34 -5 -72 -4 -15 -21 10 0 -18 0 -9 0 0 -12 0 0 -4 0 0 -3 0 0 0 0 7 1 0 0 0 0 9 0 -5 0 0 0 -21 0 -5 -6 1 7 0 0 0 0 -20 -6 0 0 -4 4 0 8 0 -13 0 0 0 0 0 0 -13 0 -27 14 -5 0 0 10 0 -6 1 9 9 7 0 0 -1 0 0 0 0 9 0 0 0 -6 -5 -36 0 0 0 1 -6 0 0 0 39 0 0 0 -13 0 0 -10 0 0 0 -42 7 0 0 18 0 0 7 0 0 0 27 0 0 0 0 0 0 0 0 0 0 0 0 0 0 0 0 0 0 0 0 -13 27 0 0 0 0 0 0 -42 0 0 0 1 0 9 0 0 0 0 0 0 0 0 0 0 0 9 0 0 -15 0 0 0 0 0 0 0 0 0 0 0 18 0 0 0 0 0 -7 0 0 0 0 0 0 41 0 -13 0 0 9 0 0 0 0 0 0 0 -3 7 0 1 0 0 0 0 0 0 0 1 0 0 0 -27 -15 0 -12 0 0 0 0 5 0 0 0 -5 0 0 0 0 0 0 0 0 1 0 0 0 3 0 0 0 0 0 -16 0 0 0 0 0 0 0 3 0 0 0 0 0 0 0 0 0 0 0 0 0 6 0 0 0 -10 -4 0 -14 6 0 0 0 0 9 -7 0 0 0 0 -9 0 0 0 0 0 0 0 0 -18 0 0 0 7 -41 1 -9 0 0 0 5 3 -3 0 -1 3 0 27 16 0 12 0 -5 10 -4 0 0 0 -1 0 0 0 0 0 0 16 0 -3 0 0 0 0 0 0 -6 13 -13 0 0 0 0 0 0 0 0 0 0 0 0 0 0 0 0 0 0 0 0 0 0 0 0 0 0 0 0 0 0 0 0 0 0 0 0 0 0 0 0 0 0 0 0 0 0 0 0 0 0 0 0 0 0 0 0 0 0 0 0 0 0 0 0 0 0 0 0 0 
-94 -1 -1 0 -44 -35 0 0 0 0 -5 0 0 -72 -40 -2 0 -59 0 0 -13 -5 0 0 -3 0 2 0 -1 0 0 0 0 10 0 -30 2 -9 0 0 5 0 0 -5 0 0 -51 -1 0 0 0 0 0 0 7 0 0 -50 0 -2 0 0 0 0 0 -3 -1 0 0 0 -79 0 -2 -8 0 0 0 -6 2 0 0 0 -27 0 2 0 0 0 0 -27 0 0 0 -5 0 0 0 0 -8 -1 2 2 0 0 0 -1 0 0 0 0 -28 0 0 0 0 -3 0 0 0 0 -1 0 0 0 -85 -13 0 0 0 50 0 0 -1 0 0 0 0 0 -79 0 0 0 0 0 0 0 0 0 0 0 0 0 0 0 0 0 0 0 0 0 5 3 0 0 0 0 0 0 -27 0 0 0 0 0 0 0 0 0 0 3 -1 0 2 0 0 0 0 0 0 0 0 0 0 0 6 -84 -3 0 0 0 0 0 0 0 0 0 0 0 0 0 0 0 0 0 0 -28 0 0 0 0 0 0 0 0 -27 0 0 9 0 0 0 0 0 28 0 0 0 0 0 0 0 0 0 2 0 0 -1 0 0 0 0 0 0 5 0 0 -7 0 5 0 0 0 0 7 0 0 0 0 0 -6 0 0 0 0 0 0 0 0 0 0 0 0 0 0 0 0 0 0 0 -3 0 0 0 0 0 0 0 0 0 -7 0 0 0 0 0 0 0 -10 -2 -2 0 8 0 0 0 0 -50 0 0 0 -5 0 -1 0 0 0 3 0 0 0 0 0 0 0 0 0 0 67 -9 0 -28 0 -5 0 0 -2 1 0 0 0 0 0 -5 0 -5 0 0 0 0 7 0 0 0 0 0 0 -3 0 0 3 0 0 0 7 0 0 0 -1 0 0 0 0 0 0 0 0 0 0 0 0 0 0 0 0 0 0 0 0 0 0 0 0 0 0 0 0 0 0 0 0 0 0 0 0 0 0 0 0 0 0 0 0 0 0 0 0 0 0 0 0 0 0 0 0 0 0 0 0 0 0 0 0 0 0 0 0 0 0 
-94 0 0 0 -96 -52 0 0 0 0 -5 0 0 -20 2 -7 0 -18 2 0 -2 -5 0 0 0 0 0 -2 0 0 -4 0 0 2 0 -11 0 0 0 0 -17 0 0 1 0 0 -1 0 0 0 0 0 0 -25 -3 0 0 0 0 -7 0 0 0 0 0 0 -5 0 -7 0 3 3 0 -17 0 0 0 14 0 0 13 -2 -11 0 0 0 0 0 0 -11 0 0 15 5 0 -2 0 -2 -2 1 0 0 0 0 0 0 0 0 0 0 -15 0 0 0 0 0 -6 0 0 0 -2 0 2 0 5 -27 0 0 0 0 0 0 0 0 0 0 0 0 5 0 0 0 0 0 0 0 -2 0 0 0 0 0 0 -20 0 0 0 3 0 0 5 3 0 0 0 0 5 0 -13 0 0 0 0 0 0 0 0 0 0 0 0 0 0 0 0 0 0 0 0 0 0 0 0 0 0 0 0 0 0 0 0 0 3 0 0 0 0 0 0 0 0 0 0 0 0 0 0 0 0 0 0 3 0 0 -13 0 0 0 0 0 0 0 0 0 0 0 17 0 -7 0 0 0 0 0 0 0 0 0 0 0 0 15 5 -17 0 0 -7 14 -5 0 0 0 0 7 0 0 0 0 0 5 0 0 0 0 0 0 0 0 0 0 0 13 0 -14 0 0 0 0 0 0 0 -2 -2 0 0 0 0 0 3 -7 0 0 0 0 0 3 0 -2 0 0 -15 2 0 0 0 -2 0 -2 0 0 -5 0 0 -3 3 0 0 0 0 0 0 0 0 0 0 0 0 13 0 0 0 -2 0 9 -2 0 0 0 0 0 -15 -5 17 0 5 0 0 0 -3 -5 0 0 0 0 0 0 0 -13 14 0 2 2 -3 7 0 0 0 -24 10 0 0 0 0 0 0 0 0 0 0 0 0 0 0 0 0 0 0 0 0 0 0 0 0 0 0 0 0 0 0 0 0 0 0 0 0 0 0 0 0 0 0 0 0 0 0 0 0 0 0 0 0 0 0 0 0 0 0 0 0 0 0 0 0 0 0 0 0 0 
-57 0 0 -1 -56 -17 -1 0 0 0 -1 5 5 0 0 -9 0 0 0 -7 0 -1 0 0 0 0 0 -8 0 0 0 -8 -7 0 0 0 0 0 0 0 0 0 -7 0 0 0 0 0 0 0 0 0 0 0 0 0 0 0 0 -1 0 0 0 0 0 0 1 0 -6 0 0 0 4 0 0 0 0 0 0 0 6 0 0 0 0 0 0 0 0 0 0 0 0 0 0 0 0 -7 0 1 0 0 -1 0 0 -4 0 0 0 0 0 0 0 0 6 0 0 0 0 0 -2 10 0 0 0 -39 0 0 0 0 0 0 -1 0 0 0 0 0 0 0 6 0 0 -6 -79 0 -8 0 0 0 0 0 0 -9 0 0 0 3 0 0 0 0 0 0 0 0 0 0 0 0 0 0 0 0 0 0 0 0 0 0 0 0 0 0 0 0 0 0 0 0 0 0 0 0 0 0 0 -8 0 0 0 0 0 0 -4 0 0 0 0 6 0 0 0 0 0 0 0 0 0 0 0 0 0 0 0 0 0 0 0 0 0 0 0 1 0 8 0 0 0 0 0 0 0 -4 0 0 0 5 0 0 0 0 0 0 0 0 -7 0 0 0 0 0 0 1 0 0 0 0 0 0 0 0 0 0 0 0 0 0 0 0 0 0 0 0 0 0 0 0 0 3 0 -2 0 0 0 0 0 0 0 -7 0 0 0 0 0 0 0 0 0 0 0 0 0 -4 5 0 0 -8 0 0 0 0 0 -3 3 0 0 0 0 0 4 -3 0 0 0 -1 0 1 0 0 -1 -8 0 0 0 4 0 -8 3 0 0 0 0 0 0 0 0 6 0 0 0 0 0 0 0 0 3 0 0 -3 2 0 0 7 0 0 0 0 0 0 0 0 0 0 0 0 0 0 0 0 0 0 0 0 0 0 0 0 0 0 0 0 0 0 0 0 0 0 0 0 0 0 0 0 0 0 0 0 0 0 0 0 0 0 0 0 0 0 0 0 0 0 0 0 0 0 0 0 0 0 0 0 0 0 0 0 0 0 
-35 -1 -1 0 -14 -14 0 0 0 0 0 -5 -5 0 0 0 0 -5 0 18 0 0 0 0 0 0 0 -34 0 0 0 0 -7 0 0 0 0 -20 -7 0 0 0 -7 0 0 0 0 0 0 0 0 0 0 0 0 0 0 0 0 0 0 0 0 0 0 0 0 0 5 0 0 0 0 -5 0 0 0 0 0 0 -5 0 0 0 0 -5 0 0 0 0 0 -26 0 0 0 0 0 -7 -5 0 0 0 0 0 0 0 0 0 0 0 -7 0 0 0 0 0 0 0 0 0 0 0 0 0 0 0 0 0 0 0 0 0 -8 0 0 0 0 0 0 0 -5 0 -5 0 0 0 -8 26 0 0 0 0 0 0 0 0 0 0 0 0 0 0 0 0 0 0 0 0 0 26 0 0 0 0 0 0 0 0 0 0 0 0 0 0 0 0 0 0 0 0 0 0 0 0 0 0 0 0 0 0 0 0 0 0 0 0 0 0 -1 -5 0 0 -1 0 0 0 0 0 0 0 0 0 0 0 0 0 0 0 0 0 0 0 -8 0 0 8 0 0 0 0 0 0 0 0 0 0 0 -5 0 0 -26 7 0 0 0 0 0 5 0 0 0 0 0 0 0 0 0 0 0 0 0 0 0 0 0 8 0 0 0 0 0 0 0 -5 0 0 0 0 0 1 0 0 0 0 0 0 0 0 0 0 0 0 0 0 0 0 0 0 0 0 0 5 0 5 -5 0 0 -8 0 5 0 0 0 0 0 0 0 0 0 0 0 -18 0 1 0 0 0 0 0 -6 0 -8 0 0 0 0 0 25 -12 26 -7 0 0 0 0 0 0 0 0 0 0 0 0 0 0 0 -7 0 5 -1 0 0 0 0 0 0 0 0 12 0 0 0 0 0 0 0 0 0 0 0 0 0 0 0 0 0 0 0 0 0 0 0 0 0 0 0 0 0 0 0 0 0 0 0 0 0 0 0 0 0 0 0 0 0 0 0 0 0 0 0 0 0 0 0 0 0 0 0 0 0 0 0 0 0 0 0 0 0 
-90 -1 -1 -62 -23 -7 -61 0 -1 -8 0 0 0 -13 -4 0 0 0 3 0 -13 0 0 0 -8 0 0 -10 0 0 -4 7 -7 5 0 -28 2 0 -3 -2 -14 0 -7 0 -10 1 0 -1 0 -8 0 0 0 0 0 0 0 -9 0 -7 0 -1 10 0 0 0 -6 0 0 0 0 0 2 0 0 0 0 0 0 0 0 0 -5 0 2 0 0 0 0 -5 0 -10 0 0 0 0 0 -7 0 1 0 0 0 0 0 0 0 0 0 0 0 0 0 0 6 0 0 0 0 1 -1 10 0 0 0 0 0 0 0 9 0 0 -10 0 0 0 0 0 0 0 0 0 0 -4 0 22 0 10 -2 0 -1 0 -2 -20 -2 0 0 2 1 0 0 0 -1 0 0 0 -48 0 -5 10 1 0 0 0 0 0 0 0 0 0 0 0 0 0 0 0 0 0 0 1 0 0 0 0 -9 0 0 7 22 0 -1 0 0 0 -4 8 0 0 -1 0 0 0 -1 0 0 0 0 0 0 0 0 0 0 0 -5 0 0 -9 0 0 0 0 0 0 0 1 14 0 0 0 0 -2 0 8 0 0 0 0 0 0 -10 0 5 -14 0 0 -3 0 0 0 0 0 0 13 -2 0 0 0 0 3 -1 0 0 0 -3 0 0 0 0 0 0 0 0 0 0 0 0 0 0 0 0 -1 0 0 0 0 0 0 0 -7 0 0 -95 0 0 0 0 -5 0 -2 0 0 0 0 0 0 -9 0 0 0 0 0 0 -2 2 -1 0 -23 0 1 4 0 0 -3 0 0 0 0 9 0 0 0 0 -1 1 -8 0 0 0 10 0 -5 14 -4 0 0 0 -6 2 -3 -3 -1 0 -1 8 -5 0 0 0 0 1 0 0 7 0 0 0 1 0 0 0 0 0 0 0 0 0 0 0 0 0 0 0 0 0 0 0 0 0 0 0 0 0 0 0 0 0 0 0 0 0 0 0 0 0 0 0 0 0 0 0 0 0 0 0 0 0 0 0 0 0 0 0 0 0 0 0 0 0 0 0 0 0 0 0 0 0 0 
-94 -25 -25 -5 0 4 -5 0 0 0 0 0 0 -2 -8 -6 0 0 0 -9 -13 0 0 0 -19 0 0 -27 -4 0 -4 1 0 -6 0 -40 -1 -56 -17 0 0 0 0 0 10 0 0 -10 0 0 0 0 10 0 6 0 0 -2 0 -7 0 0 -10 0 0 -30 -5 10 0 0 0 0 1 0 -5 0 0 0 4 0 0 0 0 0 -1 -20 0 0 0 0 0 -27 0 0 0 0 30 0 0 0 0 0 0 0 0 20 0 0 0 0 -20 0 -24 0 1 -30 0 0 0 0 -2 1 0 0 0 0 0 0 0 2 0 0 -10 0 0 0 0 0 0 0 -5 0 -20 0 0 10 0 27 0 0 0 0 0 -3 0 0 0 3 0 0 0 0 0 0 0 10 0 0 0 27 0 0 0 0 0 0 0 0 0 0 0 0 0 0 0 0 0 0 0 0 0 0 0 0 -6 0 0 1 10 0 0 0 0 0 0 0 0 0 0 -5 0 -24 0 0 0 0 0 0 0 0 0 0 0 0 0 0 0 -9 0 0 0 0 7 0 0 0 0 0 0 0 0 0 0 -11 0 0 0 0 0 0 -27 20 0 0 0 0 0 20 0 0 0 0 -30 0 0 0 0 0 0 -6 0 0 0 0 0 -2 0 0 0 0 0 0 0 -20 0 0 0 0 0 0 0 -2 0 0 0 0 0 0 0 0 0 0 0 5 0 0 0 6 -4 1 0 0 0 0 0 0 -2 0 0 20 0 -9 0 -3 3 0 0 -10 0 0 0 3 -60 0 0 0 0 0 9 -7 0 0 0 0 0 11 0 0 -2 27 -20 0 0 0 0 30 0 0 0 6 0 0 1 0 0 0 2 0 20 0 2 0 0 0 0 0 -5 -23 11 0 0 0 0 0 0 0 0 0 0 0 0 0 0 0 0 0 0 0 0 0 0 0 0 0 0 0 0 0 0 0 0 0 0 0 0 0 0 0 0 0 0 0 0 0 0 0 0 0 0 0 0 0 0 0 0 0 0 0 0 0 0 0 0 0 0 0 0 0 
-94 -9 -9 -5 -52 -18 -4 0 -5 0 -8 0 0 -12 -28 0 0 0 -1 -9 0 5 0 0 0 0 0 -25 -5 0 -4 0 -10 0 0 -91 0 0 0 -4 -23 -6 -7 1 0 0 0 -5 0 0 0 0 0 0 -1 0 0 -28 0 0 0 -1 -6 -3 0 0 0 0 0 0 0 -4 -6 0 0 0 0 5 5 0 -3 0 -91 0 0 0 0 0 0 5 0 -18 0 5 0 -3 0 -10 0 1 0 0 0 0 0 8 1 0 0 0 0 0 8 0 -4 0 0 0 0 0 0 -10 3 0 -5 0 0 0 0 28 0 0 -10 0 0 0 0 0 -5 0 0 0 0 3 0 0 -7 18 2 0 12 0 0 -15 0 0 0 0 1 0 -5 0 12 0 0 0 0 0 5 18 1 0 0 0 0 0 0 0 0 0 0 0 0 0 0 0 0 -62 0 1 0 0 0 0 0 0 0 0 0 0 0 0 0 0 6 0 0 0 1 0 0 8 1 0 0 4 0 0 0 0 0 -4 13 0 5 0 0 0 0 0 0 0 -7 -4 0 0 18 0 0 0 0 2 0 0 0 0 0 0 0 0 -18 4 0 -23 0 0 0 0 -5 0 0 0 0 -6 2 0 0 0 0 0 0 0 0 0 0 0 0 0 0 0 0 -3 0 0 0 0 0 0 0 0 0 0 0 0 0 0 -96 0 0 0 0 0 0 0 0 -4 0 0 -5 0 0 1 0 0 0 -3 -28 -7 0 0 5 -12 0 0 0 -1 0 0 0 0 -6 0 -8 -1 0 0 -13 -4 0 7 4 -7 5 7 -7 0 0 0 0 18 -4 0 23 0 5 0 0 6 -2 0 0 12 -12 0 0 0 0 3 0 0 0 0 0 0 0 0 0 -24 41 0 0 0 0 0 0 0 0 0 0 0 0 0 0 0 0 0 0 0 0 0 0 0 0 0 0 0 0 0 0 0 0 0 0 0 0 0 0 0 0 0 0 0 0 0 0 0 0 0 0 0 0 0 0 0 0 0 0 0 0 0 0 0 0 0 0 0 0 0 
-14 -13 -12 -1 0 -4 -1 0 0 0 7 0 0 -45 0 4 0 -3 -3 -20 0 7 0 0 0 -1 -38 0 0 0 -1 3 -15 0 0 -14 0 0 3 3 4 3 0 5 3 0 0 0 0 0 0 0 0 0 -9 0 0 0 0 1 0 0 0 -15 0 0 1 0 0 0 0 0 0 -3 0 0 0 -9 0 0 -15 0 -2 0 0 42 0 0 0 -2 0 0 0 5 0 0 0 0 -3 1 9 9 2 0 0 0 1 0 0 0 0 0 0 0 0 0 0 0 0 0 0 0 0 0 -5 0 0 0 0 0 0 0 -10 0 0 0 0 0 -5 0 -15 0 42 0 0 12 0 0 0 0 0 0 0 9 0 0 0 0 0 0 -5 0 0 0 0 0 0 0 -2 0 0 0 0 0 0 0 0 0 0 0 0 0 9 0 0 0 0 0 0 0 0 0 0 0 0 0 0 3 12 0 0 0 0 0 0 0 0 0 0 -15 0 0 0 0 0 0 0 0 0 0 0 0 0 0 -2 0 0 0 0 0 0 0 0 -2 0 0 -9 0 0 0 0 0 0 0 0 0 0 0 0 0 0 0 0 4 0 0 0 -47 -5 0 0 0 0 -3 5 0 0 0 0 6 0 0 0 0 0 -5 0 -84 0 0 0 0 0 47 0 0 0 0 0 0 0 0 0 0 0 0 0 0 0 3 0 0 0 0 0 0 0 0 0 0 0 4 -1 0 0 0 0 0 0 -42 5 0 -9 0 0 0 0 -12 0 0 0 10 0 3 0 2 0 0 0 0 2 0 5 0 0 0 0 0 -5 0 0 0 -4 3 5 0 0 0 -5 -6 0 0 0 0 0 0 5 0 -47 0 0 0 0 -3 0 0 0 0 0 0 0 0 0 0 0 0 0 0 0 0 0 0 0 0 0 0 0 0 0 0 0 0 0 0 0 0 0 0 0 0 0 0 0 0 0 0 0 0 0 0 0 0 0 0 0 0 0 0 0 0 0 0 0 0 0 0 0 0 0 0 0 0 0 0 0 0 0 0 
-17 -6 -6 0 -11 -6 0 0 0 0 -5 0 0 -47 0 -1 0 -3 -2 -9 0 0 0 0 0 0 -9 -3 0 0 0 0 0 0 0 0 0 0 0 0 -5 0 0 7 10 1 -3 0 0 0 0 0 0 0 -9 0 0 0 0 -1 0 0 -10 0 0 0 -1 0 0 0 0 0 0 0 0 0 0 -26 0 0 0 0 0 0 0 42 0 0 0 0 0 0 0 5 0 0 0 0 0 0 -9 -9 0 0 0 -10 0 0 0 0 0 0 0 0 0 0 0 0 0 1 0 0 0 0 0 0 0 0 0 0 0 0 -10 0 0 0 0 0 0 0 0 0 42 0 0 0 -3 0 0 0 0 0 2 0 2 0 0 0 0 0 0 0 0 0 0 0 0 0 0 0 0 0 0 0 0 0 0 0 0 0 0 0 -9 0 0 0 0 0 0 0 0 0 0 0 0 0 0 0 0 0 0 0 0 0 0 0 0 0 0 0 0 0 0 0 0 0 0 0 0 0 0 0 5 0 0 0 0 0 0 0 0 0 0 0 0 1 0 0 2 0 0 0 0 -10 0 0 0 0 -92 0 0 0 0 -5 0 0 0 10 -5 0 0 0 0 0 0 0 0 0 0 7 0 0 0 0 2 0 0 0 0 0 0 0 0 -10 0 0 0 0 0 3 0 0 0 0 0 0 0 0 0 0 0 0 0 0 0 0 0 0 0 0 0 0 0 0 0 0 0 -3 0 -42 0 -2 9 0 0 0 0 0 0 0 0 0 0 0 0 0 -5 0 0 0 0 -3 5 0 -2 10 0 0 0 0 0 0 5 0 5 0 0 0 0 -7 0 0 -2 0 0 -2 3 0 10 -3 0 0 0 0 0 0 0 0 0 0 0 0 0 0 0 0 0 0 0 0 0 0 0 0 0 0 0 0 0 0 0 0 0 0 0 0 0 0 0 0 0 0 0 0 0 0 0 0 0 0 0 0 0 0 0 0 0 0 0 0 0 0 0 0 0 0 0 0 0 0 0 0 0 0 0 0 0 0 
#OUTPUT END
Model has been successfully processed
